SAT
97 96 31 99 87 -70 18 8 83 -14 -69 71 25 -27 -34 26 30 59 22 58 -91 74 -2 60 20 -94 7 21 -36 52 3 16 -65 -100 -93 -44 62 -63 -75 -61 6 86 -54 -23 80 11 -50 -37 77 1 90 -81 82 88 -73 64 -92 -4 72 -13 -57 19 95 29 -78 98 -89 -38 85 5 -33 -55 -47 56 67 51 45 -43 -49 -24 10 35 -40 48 -32 41 17 66 68 -12 39 -76 -9 28 -42 -84 -53 46 -79 15 0
